LAMMPS (29 Oct 2020)
OMP_NUM_THREADS environment is not set. Defaulting to 1 thread. (../comm.cpp:94)
  using 1 OpenMP thread(s) per MPI task
package intel 1
package intel 0 omp 2
# REAX potential for high energy CHON systems
# .....
processors * * * grid numa

units		real

atom_style	charge
read_data	data.RDX
Reading data file ...
  orthogonal box = (0.0000000 0.0000000 0.0000000) to (25.000000 25.000000 25.000000)
  2 by 2 by 3 MPI processor grid
  2 by 2 by 3 core grid within node
  reading atoms ...
  105 atoms
  read_data CPU = 0.003 seconds

pair_style	reax/c lmp_control
pair_coeff	* * ffield.reax.rdx H C O N
Reading potential file ffield.reax.rdx with DATE: 2010-02-19

neighbor	2 bin
neigh_modify	every 10 delay 0 check no

thermo           30         	# 每30步输出一次热力学量在log文件里
thermo_style     custom step temp press etotal pe ke evdwl ecoul elong cella cellb cellc cellalpha cellbeta cellgamma vol density

fix		1 all nve
fix     2 all qeq/reax 1 0.0 10.0 1e-6 param.qeq
fix     3 all temp/berendsen 3000.0 3000.0 100.0
fix     4 all reax/c/bonds 30 bonds.reax.bof 				#每30步输出键信息
fix     5 all reax/c/species 1 5 30 species.out cutoff 2 2 0.55 cutoff 2 4 0.30 cutoff 2 3 0.65 cutoff 2 1 0.40 cutoff 4 4 0.55 cutoff 4 3 0.40 cutoff 4 1 0.55 cutoff 3 3 0.65 cutoff 3 1 0.40 cutoff 1 1 0.55 position 30 HCON.pos element H C O N
#每1步计算一次键级，每5步计算一次平均键级，每30步输出一次物质种类信息与空间位置（.pos）

timestep	     0.25           # 每0.25fs计算一次，步长

dump		1 all custom 30 dump.reax.rdx.trj id type x y z

run		300000
Neighbor list info ...
  update every 10 steps, delay 0 steps, check no
  max neighbors/atom: 2000, page size: 100000
  master list distance cutoff = 12
  ghost atom cutoff = 12
  binsize = 6, bins = 5 5 5
  2 neighbor lists, perpetual/occasional/extra = 2 0 0
  (1) pair reax/c, perpetual
      attributes: half, newton off, ghost
      pair build: half/bin/newtoff/ghost
      stencil: half/ghost/bin/3d/newtoff
      bin: standard
  (2) fix qeq/reax, perpetual, copy from (1)
      attributes: half, newton off, ghost
      pair build: copy
      stencil: none
      bin: none
Per MPI rank memory allocation (min/avg/max) = 20.81 | 21.69 | 22.73 Mbytes
Step Temp Press TotEng PotEng KinEng E_vdwl E_coul E_long Cella Cellb Cellc CellAlpha CellBeta CellGamma Volume Density 
       0            0    38.347492   -10197.932   -10197.932            0   -9828.8955   -369.03648            0           25           25           25           90           90           90        15625    0.1180267 
      30    173.44027   -1550.4496    -10130.06   -10183.828    53.767219   -9818.5825   -365.24511            0           25           25           25           90           90           90        15625    0.1180267 
      60    232.69939   -1752.5098   -10064.724   -10136.862    72.137799   -9785.8669   -350.99469            0           25           25           25           90           90           90        15625    0.1180267 
      90    269.54705   -9524.4295   -10000.166   -10083.727    83.560731   -9748.4262   -335.30083            0           25           25           25           90           90           90        15625    0.1180267 
     120    315.98366    -1616.806   -9936.2471   -10034.203    97.956277   -9689.8639   -344.33949            0           25           25           25           90           90           90        15625    0.1180267 
     150    667.75893   -748.42255   -9876.8327   -10083.841     207.0081   -9728.2734   -355.56744            0           25           25           25           90           90           90        15625    0.1180267 
     180     829.8908   -3206.4958    -9822.901   -10080.171    257.26967   -9697.2282    -382.9425            0           25           25           25           90           90           90        15625    0.1180267 
     210    975.72826   -1282.6314   -9775.6368   -10078.117     302.4799   -9683.3487   -394.76798            0           25           25           25           90           90           90        15625    0.1180267 
     240    906.19033    -6166.478   -9726.0668    -10006.99    280.92285   -9615.6323   -391.35729            0           25           25           25           90           90           90        15625    0.1180267 
     270    931.43435   -4202.1227   -9677.4397   -9966.1883     288.7486   -9563.2842   -402.90408            0           25           25           25           90           90           90        15625    0.1180267 
     300    769.36399    4433.8545   -9627.8465   -9866.3526     238.5061   -9447.8073   -418.54528            0           25           25           25           90           90           90        15625    0.1180267 
     330    998.70845   -4033.0072   -9577.4803   -9887.0842    309.60386   -9471.8252   -415.25891            0           25           25           25           90           90           90        15625    0.1180267 
     360    1359.5826    4410.1091   -9534.9963   -9956.4727    421.47636   -9555.7488   -400.72392            0           25           25           25           90           90           90        15625    0.1180267 
     390    1589.5625   -3181.2531   -9496.7989     -9989.57    492.77113   -9601.9389   -387.63111            0           25           25           25           90           90           90        15625    0.1180267 
     420    1803.0544   -5924.5342   -9467.7598   -10026.714     558.9545   -9642.6424   -384.07192            0           25           25           25           90           90           90        15625    0.1180267 
     450    1194.2212    3642.6833   -9431.1116   -9801.3253    370.21365   -9427.3871   -373.93821            0           25           25           25           90           90           90        15625    0.1180267 
     480    1496.6826   -4124.8685   -9390.8571   -9854.8351    463.97796   -9492.1393    -362.6958            0           25           25           25           90           90           90        15625    0.1180267 
     510     1473.151   -8548.1271   -9354.7933   -9811.4764    456.68307   -9443.7058   -367.77063            0           25           25           25           90           90           90        15625    0.1180267 
     540     1793.857    8519.6643   -9324.4341   -9880.5374    556.10329   -9490.6909   -389.84652            0           25           25           25           90           90           90        15625    0.1180267 
     570    1617.3461    551.17606   -9294.1131   -9795.4973    501.38416   -9400.9364   -394.56084            0           25           25           25           90           90           90        15625    0.1180267 
     600    1451.6769   -8327.5621   -9259.9142   -9709.9402      450.026   -9323.8575   -386.08274            0           25           25           25           90           90           90        15625    0.1180267 
     630     1540.327   -591.74779   -9224.6513   -9702.1592    477.50792   -9324.0742   -378.08502            0           25           25           25           90           90           90        15625    0.1180267 
     660    1611.0162   -1279.2812   -9190.5901    -9690.012    499.42187   -9320.3416    -369.6704            0           25           25           25           90           90           90        15625    0.1180267 
     690    1905.0556   -7345.2925   -9161.7571   -9752.3324    590.57533   -9380.5909   -371.74149            0           25           25           25           90           90           90        15625    0.1180267 
     720    1869.1149   -262.01629   -9136.1962   -9715.6298    579.43355   -9336.1808   -379.44897            0           25           25           25           90           90           90        15625    0.1180267 
     750    1975.4828    603.40991   -9110.6001   -9723.0081    612.40805   -9353.6791    -369.3291            0           25           25           25           90           90           90        15625    0.1180267 
     780    1756.9583   -18.647337   -9083.2112   -9627.8758    544.66455   -9266.3105   -361.56521            0           25           25           25           90           90           90        15625    0.1180267 
     810    2116.7642    2399.7702   -9059.0573   -9715.2632     656.2059   -9339.5658   -375.69739            0           25           25           25           90           90           90        15625    0.1180267 
     840    2186.1738   -2094.1299   -9040.8658    -9718.589    677.72315   -9333.3344   -385.25458            0           25           25           25           90           90           90        15625    0.1180267 
     870    2279.6934    -2539.119   -9021.2041   -9727.9187    706.71462   -9351.1377   -376.78105            0           25           25           25           90           90           90        15625    0.1180267 
     900    2209.5762    2549.9368   -9003.4314   -9688.4094    684.97799   -9315.8894      -372.52            0           25           25           25           90           90           90        15625    0.1180267 
     930    2122.0505   -4505.0026   -8983.5152   -9641.3598    657.84465   -9272.7631    -368.5967            0           25           25           25           90           90           90        15625    0.1180267 
     960    2441.2934   -1478.8684    -8967.119   -9723.9303    756.81131   -9355.1138   -368.81658            0           25           25           25           90           90           90        15625    0.1180267 
     990    2238.8622    2625.6318   -8950.2077   -9644.2645    694.05679   -9273.2228   -371.04164            0           25           25           25           90           90           90        15625    0.1180267 
    1020    2235.7826   -955.13829   -8931.9517   -9625.0538    693.10209   -9255.6994   -369.35437            0           25           25           25           90           90           90        15625    0.1180267 
    1050     2418.909    3155.5388   -8918.4456   -9668.3177    749.87205   -9305.5579   -362.75975            0           25           25           25           90           90           90        15625    0.1180267 
    1080    2329.2203    1705.5869   -8902.4066   -9624.4748    722.06818   -9266.1014   -358.37341            0           25           25           25           90           90           90        15625    0.1180267 
    1110    2084.7719    700.15914   -8883.0834   -9529.3716    646.28815   -9165.6155   -363.75605            0           25           25           25           90           90           90        15625    0.1180267 
    1140    2132.9514    2700.0255   -8864.1666   -9525.3906    661.22399   -9153.9526   -371.43795            0           25           25           25           90           90           90        15625    0.1180267 
    1170     2269.745    448.42187   -8844.4135   -9548.0441     703.6306   -9188.5982   -359.44595            0           25           25           25           90           90           90        15625    0.1180267 
    1200    2415.1559    5023.9391   -8829.0169   -9577.7255    748.70859   -9222.2829   -355.44262            0           25           25           25           90           90           90        15625    0.1180267 
    1230    2254.2415   -3601.5965   -8811.1602   -9509.9846    698.82442   -9154.4527   -355.53193            0           25           25           25           90           90           90        15625    0.1180267 
    1260    2379.3143    1848.6769   -8797.5344   -9535.1319    737.59753   -9185.4955   -349.63643            0           25           25           25           90           90           90        15625    0.1180267 
    1290    2315.1763    3680.8875   -8781.1859   -9498.9003    717.71447   -9150.3757   -348.52466            0           25           25           25           90           90           90        15625    0.1180267 
    1320    2345.2522   -2917.1991   -8765.2713   -9492.3094    727.03814   -9136.8519   -355.45748            0           25           25           25           90           90           90        15625    0.1180267 
    1350    2661.7543    2341.9148   -8756.0248   -9581.1799    825.15514    -9216.003    -365.1769            0           25           25           25           90           90           90        15625    0.1180267 
    1380    2380.0653   -1701.4343   -8742.8427   -9480.6731    737.83034   -9118.9778   -361.69533            0           25           25           25           90           90           90        15625    0.1180267 
    1410    2388.2228    1534.0791   -8728.8625   -9469.2218    740.35921   -9109.5917   -359.63009            0           25           25           25           90           90           90        15625    0.1180267 
    1440    2632.4004   -3433.2073   -8717.1985   -9533.2538    816.05531   -9166.9894   -366.26442            0           25           25           25           90           90           90        15625    0.1180267 
    1470    2626.4848    2867.7543   -8706.0841   -9520.3055    814.22143   -9152.0789   -368.22657            0           25           25           25           90           90           90        15625    0.1180267 
    1500     2667.614    763.86199   -8700.5459   -9527.5175    826.97166   -9167.8145   -359.70305            0           25           25           25           90           90           90        15625    0.1180267 
    1530    2557.9963   -738.31405   -8691.0301   -9484.0198     792.9897   -9123.3031   -360.71672            0           25           25           25           90           90           90        15625    0.1180267 
    1560     2678.129    2525.7888   -8680.7886   -9511.0199    830.23136   -9147.1526   -363.86736            0           25           25           25           90           90           90        15625    0.1180267 
    1590    2650.2986   -2018.0194   -8671.8508   -9493.4547    821.60383    -9127.884   -365.57064            0           25           25           25           90           90           90        15625    0.1180267 
    1620     2426.671    3165.0976   -8662.7459   -9415.0242    752.27831   -9048.6425   -366.38179            0           25           25           25           90           90           90        15625    0.1180267 
    1650    2772.6804   -723.96788   -8654.1282    -9513.671     859.5427   -9153.5893   -360.08164            0           25           25           25           90           90           90        15625    0.1180267 
    1680    2566.8593   -1292.8289   -8646.4197   -9442.1569    795.73727   -9076.4912   -365.66569            0           25           25           25           90           90           90        15625    0.1180267 
    1710    2510.9557    1878.2204   -8634.7415   -9413.1484    778.40694   -9040.3944   -372.75397            0           25           25           25           90           90           90        15625    0.1180267 
    1740    2755.2932   -107.94906   -8626.2835   -9480.4361     854.1526   -9106.4542   -373.98197            0           25           25           25           90           90           90        15625    0.1180267 
    1770    2541.0479    1716.6174   -8617.5207   -9405.2563    787.73565   -9040.6108    -364.6455            0           25           25           25           90           90           90        15625    0.1180267 
    1800     2700.572    1242.6133   -8610.3726   -9447.5614    837.18879   -9079.9718   -367.58955            0           25           25           25           90           90           90        15625    0.1180267 
    1830    2838.3903    2149.2529   -8603.1628   -9483.0758    879.91306   -9117.8121   -365.26375            0           25           25           25           90           90           90        15625    0.1180267 
    1860    2637.3901    1983.2384   -8596.8085   -9414.4106    817.60213   -9051.0467   -363.36399            0           25           25           25           90           90           90        15625    0.1180267 
    1890    2716.1811   -691.64129   -8588.8915   -9430.9192    842.02767   -9064.2169   -366.70231            0           25           25           25           90           90           90        15625    0.1180267 
    1920    2802.3566   -540.80148   -8581.9843   -9450.7267    868.74244   -9085.7677   -364.95908            0           25           25           25           90           90           90        15625    0.1180267 
    1950    2935.8572   -1316.3073    -8577.857   -9487.9852     910.1282    -9130.274    -357.7112            0           25           25           25           90           90           90        15625    0.1180267 
    1980    2755.5916    4309.0713   -8574.7076   -9428.9527    854.24511   -9061.4334   -367.51933            0           25           25           25           90           90           90        15625    0.1180267 
    2010    2720.3683    21.157029   -8568.9805   -9412.3063    843.32573    -9039.599   -372.70725            0           25           25           25           90           90           90        15625    0.1180267 
    2040    2780.9167    923.67929   -8561.8468   -9423.9428    862.09598   -9060.5644   -363.37844            0           25           25           25           90           90           90        15625    0.1180267 
    2070    2631.4036   -1917.7709   -8557.4425   -9373.1888    815.74628   -9003.9873   -369.20151            0           25           25           25           90           90           90        15625    0.1180267 
    2100    2899.3931    268.71711   -8550.2531   -9449.0772    898.82418   -9079.6445   -369.43273            0           25           25           25           90           90           90        15625    0.1180267 
    2130    2741.1507    5628.2509   -8546.9136   -9396.6819    849.76835   -9033.3251   -363.35686            0           25           25           25           90           90           90        15625    0.1180267 
    2160    2616.6182   -1437.7781   -8541.9912   -9353.1539    811.16276   -8989.3703   -363.78365            0           25           25           25           90           90           90        15625    0.1180267 
    2190    2741.9967   -783.91208   -8538.0236   -9388.0542    850.03062   -9022.5465   -365.50765            0           25           25           25           90           90           90        15625    0.1180267 
    2220    2649.7446    4038.1679   -8529.3552   -9350.7872    821.43207   -8985.0679   -365.71931            0           25           25           25           90           90           90        15625    0.1180267 
    2250    2735.7572    4133.6335   -8524.8798   -9372.9761    848.09636   -9010.9369   -362.03921            0           25           25           25           90           90           90        15625    0.1180267 
    2280    2869.6145   -4257.5307   -8522.1426   -9411.7352    889.59268   -9057.3034   -354.43181            0           25           25           25           90           90           90        15625    0.1180267 
    2310    2814.0957    4640.7212   -8517.6108   -9389.9924     872.3816   -9016.0882   -373.90413            0           25           25           25           90           90           90        15625    0.1180267 
    2340    2782.7745   -1468.6264   -8514.2955   -9376.9674    862.67192   -9008.0348   -368.93263            0           25           25           25           90           90           90        15625    0.1180267 
    2370    2867.4843    39.136553   -8511.9532   -9400.8855     888.9323   -9042.7366   -358.14889            0           25           25           25           90           90           90        15625    0.1180267 
    2400    2946.3977    3420.6491    -8509.078   -9422.4738    913.39579   -9059.7921   -362.68169            0           25           25           25           90           90           90        15625    0.1180267 
    2430    2906.8518    2184.5093   -8508.0004   -9409.1368    901.13639   -9048.3851   -360.75167            0           25           25           25           90           90           90        15625    0.1180267 
    2460    2916.8659   -3044.3595   -8506.2898   -9410.5306    904.24082   -9056.0685   -354.46214            0           25           25           25           90           90           90        15625    0.1180267 
    2490    2875.7267    2045.6497   -8504.9902   -9396.4777    891.48747   -9040.6509   -355.82678            0           25           25           25           90           90           90        15625    0.1180267 
    2520    2765.7341   -4256.2708    -8499.156   -9356.5454    857.38932   -9000.4052   -356.14015            0           25           25           25           90           90           90        15625    0.1180267 
    2550    2724.1811    4449.5368    -8494.745   -9339.2527     844.5077   -8989.9415   -349.31118            0           25           25           25           90           90           90        15625    0.1180267 
    2580    2887.0288    1638.7213   -8488.9107   -9383.9019    894.99118   -9041.5933   -342.30862            0           25           25           25           90           90           90        15625    0.1180267 
    2610    2783.5282   -578.41267   -8487.0201   -9349.9256    862.90556   -9006.3158   -343.60981            0           25           25           25           90           90           90        15625    0.1180267 
    2640    2899.1928     1936.849   -8483.2887   -9382.0508    898.76206   -9035.4238   -346.62696            0           25           25           25           90           90           90        15625    0.1180267 
    2670    3041.5005   -2756.2731   -8483.0896   -9425.9677    942.87806   -9082.5687   -343.39894            0           25           25           25           90           90           90        15625    0.1180267 
    2700    2903.8671    1476.8829   -8482.1623   -9382.3734    900.21114   -9040.2446   -342.12878            0           25           25           25           90           90           90        15625    0.1180267 
    2730    2964.5577    5551.0705   -8479.3105   -9398.3359    919.02546   -9058.0531   -340.28282            0           25           25           25           90           90           90        15625    0.1180267 
    2760     2851.949   -2229.8647   -8477.5788   -9361.6951    884.11629   -9024.8465   -336.84864            0           25           25           25           90           90           90        15625    0.1180267 
    2790    2950.6752    739.03218   -8475.4477   -9390.1696    914.72184   -9049.5308   -340.63877            0           25           25           25           90           90           90        15625    0.1180267 
    2820    2985.8092    3631.6947   -8473.6855    -9399.299    925.61352   -9053.1065   -346.19256            0           25           25           25           90           90           90        15625    0.1180267 
    2850     2911.786    2065.5026   -8471.3073   -9373.9734    902.66601   -9030.9131   -343.06024            0           25           25           25           90           90           90        15625    0.1180267 
    2880    2981.7494    1985.8157   -8468.6963   -9393.0513    924.35498    -9055.519   -337.53227            0           25           25           25           90           90           90        15625    0.1180267 
    2910    2937.0573    2530.7411   -8466.2759   -9376.7762    910.50023   -9039.6335   -337.14266            0           25           25           25           90           90           90        15625    0.1180267 
    2940    2949.8102    2530.0295   -8466.8489   -9381.3026    914.45369   -9033.3094   -347.99325            0           25           25           25           90           90           90        15625    0.1180267 
    2970    3139.0551    -1821.586   -8466.5222   -9439.6426     973.1204   -9100.9825   -338.66012            0           25           25           25           90           90           90        15625    0.1180267 
    3000    3108.5126   -686.26983   -8468.9531   -9432.6052     963.6521   -9099.4104   -333.19479            0           25           25           25           90           90           90        15625    0.1180267 
    3030    3167.1593     2899.315    -8469.978   -9451.8108    981.83284   -9117.8903   -333.92052            0           25           25           25           90           90           90        15625    0.1180267 
    3060    3106.5324   -2515.2339   -8471.2624   -9434.3007    963.03824   -9105.3122   -328.98849            0           25           25           25           90           90           90        15625    0.1180267 
    3090    3073.8079   -1348.7526   -8471.7654   -9424.6589    952.89351    -9095.161   -329.49787            0           25           25           25           90           90           90        15625    0.1180267 
    3120    3053.4081   -1041.2626   -8471.0658   -9417.6352    946.56946   -9078.7084   -338.92683            0           25           25           25           90           90           90        15625    0.1180267 
    3150    2954.9887   -1296.0099   -8473.0002   -9389.0592    916.05904   -9050.6417   -338.41754            0           25           25           25           90           90           90        15625    0.1180267 
    3180    2983.7606    4168.4032   -8472.7373   -9397.7158    924.97846   -9058.6311   -339.08463            0           25           25           25           90           90           90        15625    0.1180267 
    3210      3044.88    201.98859   -8472.3219   -9416.2476    943.92573   -9080.2487   -335.99898            0           25           25           25           90           90           90        15625    0.1180267 
    3240    2866.2334   -458.60889   -8470.7188   -9359.2633    888.54451   -9022.8568   -336.40651            0           25           25           25           90           90           90        15625    0.1180267 
    3270    2960.0645    3419.8708    -8471.509   -9389.1416    917.63258   -9051.8406     -337.301            0           25           25           25           90           90           90        15625    0.1180267 
    3300    3053.6796    980.33367   -8471.9514    -9418.605    946.65365   -9089.5941   -329.01088            0           25           25           25           90           90           90        15625    0.1180267 
    3330     3018.234   -632.68927   -8470.7167    -9406.382    935.66536   -9072.0947   -334.28727            0           25           25           25           90           90           90        15625    0.1180267 
    3360    3014.1883    2090.4357   -8471.2612   -9405.6724    934.41116   -9071.9998   -333.67257            0           25           25           25           90           90           90        15625    0.1180267 
    3390      3149.51   -105.52511   -8471.3826    -9447.744    976.36148   -9114.7621   -332.98193            0           25           25           25           90           90           90        15625    0.1180267 
    3420    3238.4894    2153.1932   -8474.5959   -9478.5413    1003.9455   -9143.4936   -335.04771            0           25           25           25           90           90           90        15625    0.1180267 
    3450    2996.5841   -1098.4102   -8475.1494   -9404.1032    928.95379   -9066.6655   -337.43771            0           25           25           25           90           90           90        15625    0.1180267 
    3480    3068.6143    2765.0525   -8478.1386    -9429.422    951.28347   -9093.6714   -335.75059            0           25           25           25           90           90           90        15625    0.1180267 
    3510    3146.5732    -583.9899   -8481.7362   -9457.1873    975.45106   -9119.6206   -337.56671            0           25           25           25           90           90           90        15625    0.1180267 
    3540    2917.7585    912.51242   -8483.4017   -9387.9192    904.51753   -9046.4222     -341.497            0           25           25           25           90           90           90        15625    0.1180267 
    3570    3063.7082    1142.6493   -8482.1019   -9431.8645    949.76254   -9096.6389   -335.22562            0           25           25           25           90           90           90        15625    0.1180267 
    3600     3149.594    2404.0367   -8481.4869   -9457.8745    976.38751   -9121.6197    -336.